(set-logic QF_S)
(declare-fun B () String)
(declare-fun A () String)
(assert (= (str.++  "cccbccefbceecaffdbafccccdccbdcbfaffffadeddfbbccdddfeffafefe" "")  (str.++  "cccb" A "ddfbbccdddfeffafefe") ))
(assert (= (str.++  "ecdbdbefdcfeacfacbdbdedaecfdbedbed" B "bbbdcbeadccdebfedebfb")  (str.++  "ecdbdbefdcfeacfacbdbdedaecfdbedbed" B "bbbdcbeadccdebfedebfb") ))
(assert (= (str.++  "dbcadfdfccbbfecdcbdddcafafaaebbebdeebeadfdcefbcbcfbafdddbac" "")  (str.++  "dbcadfdfccbbfecdcbdddcafafaaebbebdeebeadfdc" B "bcfbafdddbac") ))
(assert (= (str.++  "dabdbedffbbdefcccdfebbabfef" B "abfcfaabacebbddafebefccbfbeb")  (str.++  "dabdbedffbbdefcccdfebbabfef" B "abfcfaabacebbddafebefccbfbeb") ))
(assert (= (str.++  "dfdcbafbdbdfdaaaccb" B "dfffbcbafeffcadebecddfbebcbebabcdada")  (str.++  "dfdcbafbdbdfdaaaccbefbcdfffbcbafeffcadebecddfbebcbebabcdada" "") ))
(assert (= (str.++  "feeddaffdfafdbcfedabcebdcfdcceddccaddfe" B "adcecacceacadbdb")  (str.++  "feeddaffdfafdbcfedabcebdcfdcceddccaddfe" B "adcecacceacadbdb") ))
(assert (= (str.++  "cbbedccafbacafecdaacefbcacdebbebebdaabcfbabaeddaecdbfdaeaae" "")  (str.++  "cbbedccafbacafecdaac" B "acdebbebebdaabcfbabaeddaecdbfdaeaae") ))
(assert (= (str.++  "ccdaccbdeaaeffadeecbdfcffdabcbfbe" B "bdecfaedfbababdabaaecb")  (str.++  "ccdaccbdeaaeffadeecbdfcffdabcbfbeefbcbdecfaedfbababdabaaecb" "") ))
(assert (= (str.++  "ddbdfdbbefdbaffcacefdbfcdfeedaebbcbcbaceaeadddbbdaefea" B "a")  (str.++  "ddbdfdbbefdbaffcacefdbfcdfeedaebbcbcbaceaeadddbbdaefeaefbca" "") ))
(assert (= (str.++  "dbceabddddfebcdfbcceecff" B "adacaafabfdefcbaaedfafafdbabcfb")  (str.++  "dbceabddddfebcdfbcceecffefbcadacaafabfdefcbaaedfafafdbabcfb" "") ))
(assert (= (str.++  "cdabbcbacceaebbbdfcdeddbafedfdeedccdbfbeaaadebbacf" B "eadef")  (str.++  "cdabbcbacceaebbbdfcdeddbafedfdeedccdbfbeaaadebbacf" B "eadef") ))
(assert (= (str.++  "cdfbdaadfcdacaacafbdebaabaebdfcfefbedfabdbdcbdef" B "ebabdcb")  (str.++  "cdfbdaadfcdacaacafbdebaabaebdfcfefbedfabdbdcbdefefbcebabdcb" "") ))
(assert (= (str.++  "abbfdaedacebdcecdafedabedaffdfddcb" B "fdeabcbcedebfdbbfcfee")  (str.++  "abbfdaedacebdcecdafedabedaffdfddcbefbcfdeabcbcedebfdbbfcfee" "") ))
(assert (= (str.++  "beadddcbfaacedacefacdfedcbcfadfbedfdcaaefeaeabba" B "fdeabfa")  (str.++  "beadddcbfaacedacefacdfedcbcfadfbedfdcaaefeaeabba" B "fdeabfa") ))
(assert (= (str.++  "aabbbbdcccae" B "eabeaaccecaaedbceaddeecfeeecabfcecdcbfebeef")  (str.++  "aabbbbdcccae" B "eabeaaccecaaedbceaddeecfeeecabfcecdcbfebeef") ))
(assert (= (str.++  "dfaadabababdabefddbcaebdffcccfdefbcafacfadcfcbbbebecfffbbee" "")  (str.++  "dfaadabababdabefddbcaebdffcccfd" B "afacfadcfcbbbebecfffbbee") ))
(assert (= (str.++  "ccecbfbecbedcfbfdaedecdeaccebafededeceebadcdcbbefbccdddcfdc" "")  (str.++  "ccecbfbecbedcfbfdaedecdeaccebafededeceebadcdcbb" B "cdddcfdc") ))
(assert (= (str.++  "dfaefceeefbcdadfcacadbcaefcdfdfbdaecbffccfaccbaeeaadbdecafc" "")  (str.++  "dfaefcee" B "dadfcacadbcaefcdfdfbdaecbffccfaccbaeeaadbdecafc") ))
(assert (= (str.++  "daccccdabbaefbad" B "ddfddbdbafbfbabffbbccaaafcfbcecdffbeacc")  (str.++  "daccccdabbaefbad" B "ddfddbdbafbfbabffbbccaaafcfbcecdffbeacc") ))
(assert (= (str.++  "acfbaeddcf" B "abacaffabdfccccabbaaebdefafddedceddababcfabde")  (str.++  "acfbaeddcfefbcabacaffabdfccccabbaaebdefafddedceddababcfabde" "") ))
(assert (= (str.++  "eadbedaefac" B "decbbceccdcdcdbbcfbaefffffeaecfeddbbcfffcafa")  (str.++  "eadbedaefacefbcdecbbceccdcdcdbbcfbaefffffeaecfeddbbcfffcafa" "") ))
(assert (= (str.++  "bdecadcadfbfdbafeefcfacebebdeefbcffdeccdebbcfecafdacaddcbaf" "")  (str.++  "bdecadcadfbfdbafeefcfacebebde" B "ffdeccdebbcfecafdacaddcbaf") ))
(assert (= (str.++  "eaecadefbacedcbcefaabcfccecdaeaabdfcfeebaacedbacfbbcad" B "c")  (str.++  "eaecadefbacedcbcefaabcfccecdaeaabdfcfeebaacedbacfbbcad" B "c") ))
(assert (= (str.++  "eececfffbeaebccdfbdbfbadcafffbedefbcafdfffaeabbaeddadefdadf" "")  (str.++  "eececfffbeaebccdfbdbfbadcafffbed" B "afdfffaeabbaeddadefdadf") ))
(assert (= (str.++  "adccebcaaceefeddabdbddfbaaefacaffbfebddcbefbcaeddbbbcbffcee" "")  (str.++  "adccebcaaceefeddabdbddfbaaefacaffbfebddcb" B "aeddbbbcbffcee") ))
(assert (= (str.++  "eebefecebcdeebffcdadeeffefedefaaebaedd" B "ffdcdbeaeffbbeabe")  (str.++  "eebefecebcdeebffcdadeeffefedefaaebaedd" B "ffdcdbeaeffbbeabe") ))
(assert (= (str.++  "edbcdefbdfa" B "abaceedcefdbdefeaffbcbfacdffbecdbfefdffceefa")  (str.++  "edbcdefbdfaefbcabaceedcefdbdefeaffbcbfacdffbecdbfefdffceefa" "") ))
(assert (= (str.++  "ed" B "feecbddecdcbcbaafefdcbabadbffdadcddaefadfecefeadaaabe")  (str.++  "edefbcfeecbddecdcbcbaafefdcbabadbffdadcddaefadfecefeadaaabe" "") ))
(assert (= (str.++  "d" B "bedebedfdceeeeacbabeafccffbcbafeadeafcbbccbedabbbeadec")  (str.++  "d" B "bedebedfdceeeeacbabeafccffbcbafeadeafcbbccbedabbbeadec") ))
(assert (= (str.++  "ecefdbefbdeafafebaccfbbcceafadfdfacbefefbccbcfbaeedcbcfaeff" "")  (str.++  "ecefdbefbdeafafebaccfbbcceafadfdfacbef" B "cbcfbaeedcbcfaeff") ))
(assert (= (str.++  "dbdefdbbacdacffcbaadaafaefbceaeaaafadfdfcbbbecaaddbeebacbdf" "")  (str.++  "dbdefdbbacdacffcbaadaafa" B "eaeaaafadfdfcbbbecaaddbeebacbdf") ))
(assert (= (str.++  "effbaafeefcadcfedacaaadbfdcfecfeaebafbeafafdadcdfa" B "ffcec")  (str.++  "effbaafeefcadcfedacaaadbfdcfecfeaebafbeafafdadcdfa" B "ffcec") ))
(assert (= (str.++  "cffbccbcbeadcbbfccacffdcefbcbcadebaeabbdabdbffdbaeddcffefee" "")  (str.++  "cffbccbcbeadcbbfccacffdc" B "bcadebaeabbdabdbffdbaeddcffefee") ))
(assert (= (str.++  "cad" B "ebfccaccdeeefafefaebeecaabfdecdedacdadfbaeedbccbfefd")  (str.++  "cad" B "ebfccaccdeeefafefaebeecaabfdecdedacdadfbaeedbccbfefd") ))
(assert (= (str.++  "fddeccccfdfcbfdacdfbeafbeecbafdefbcabaeaeefcacfefbfccfbcbce" "")  (str.++  "fddeccccfdfcbfdacdfbeafbeecbafd" B "abaeaeefcacfefbfccfbcbce") ))
(assert (= (str.++  "efefdcfcaccefdbbbfecedcfccfaacfecfdaadbdeacbbcfbf" B "eccbbf")  (str.++  "efefdcfcaccefdbbbfecedcfccfaacfecfdaadbdeacbbcfbf" B "eccbbf") ))
(assert (= (str.++  "eecadaffdfdddadebddeabebcc" B "bccfecbfc")  (str.++  "eeca" A "dddadebddeabebcc" B "bccfecbfc") ))
(assert (= (str.++  "cabccacccedeeccfecaababbdcacceeedddecdef" A "bfabfafdadaeb")  (str.++  "cabccacccedeeccfecaababbdcacceeedddecdefdaffdfbfabfafdadaeb" "") ))
(assert (= (str.++  "bdfcfcadadcddeabbbfabedbbccddeca" A "adbfcbcddcbaccfafacaf")  (str.++  "bdfcfcadadcddeabbbfabedbbccddeca" A "adbfcbcddcbaccfafacaf") ))
(assert (= (str.++  "fceaccffdbfadcdafbaabedfacfad" A "debbcecababadaacaadfdebb")  (str.++  "fceaccffdbfadcdafbaabedfacfad" A "debbcecababadaacaadfdebb") ))
(assert (= (str.++  "eddeeaacaaacfcfbfcbbbfbabe" B "bceddbebcedbaadbaafdd")  (str.++  "eddeeaacaaacfcfbfcbbbfbabebdececadbfedbceddbebcedbaadbaafdd" "") ))
(assert (= (str.++  "aceebeeaabcfd" B "deefbeb")  (str.++  "aceebeeaabcfd" B "deefbeb") ))
(assert (= (str.++  "efbaebbaabcccddecdcabcdedfbebbeebafbeacfdefacbbfafbaeffddef" "")  (str.++  "efbaebb" B "fbeacfdefacbbfafbaeffddef") ))
(assert (= (str.++  "b" A "adaebbfbeafcbeedfdacdaaafdcfaedafcbebccaaccaaabdbecbba")  (str.++  "befcb" B "beedfdacdaaafdcfaedafcbebccaaccaaabdbecbba") ))
(assert (= (str.++  "fbccbfdcececfbcadcfecbeabefbbdaebfadefefcbaafdfaaecafceddbd" "")  (str.++  "fbccbfdcececfbcadcfecbeabefbbdaebfadef" A "aafdfaaecafceddbd") ))
(assert (= (str.++  "acfbebfeefbcfcefcbdbcaaeebfbfbcfecebfadbfeeeaafaebcfadedccf" "")  (str.++  "acfbebfeefbcfc" A "dbcaaeebfbfbcfecebfadbfeeeaafaebcfadedccf") ))
(assert (= (str.++  "bcfbdccecfbb" A "ececcddacccabbefccabddafdacadaefeccdaaefbfb")  (str.++  "bcfbdccecfbb" A "ececcddacccabbefccabddafdacadaefeccdaaefbfb") ))
(assert (= (str.++  "dccecccdfecadefcbfefacfdbafbfdbfeefbecffaafbabdfeaeedbbbecc" "")  (str.++  "dccecccdfecad" A "fefacfdbafbfdbfeefbecffaafbabdfeaeedbbbecc") ))
(assert (= (str.++  "abcadaabbdcacdcadeebbbddebcaaaaffebbcbebbbacdcccefcbbebbfdd" "")  (str.++  "abcadaabbdcacdcadeebbbddebcaaaaffebbcbebbbacdccc" A "bebbfdd") ))
(assert (= (str.++  "affedffaacddcbeaddbbfcdaabdeffbca" A "feaaddffbddeafcdfdbccf")  (str.++  "affedffaacddcbeaddbbfcdaabdeffbcaefcbfeaaddffbddeafcdfdbccf" "") ))
(assert (= (str.++  "eefdabfefbfbacfbcbfecbceeddbdebbacecabbefbdecbedbebabe" A "a")  (str.++  "eefdabfefbfbacfbcbfecbceeddbdebbacecabbefbdecbedbebabe" A "a") ))
(assert (= (str.++  "eabddbd" A "cbedfcfebdffffafebaccebbcfccccbaaafdcdcdeeceddfb")  (str.++  "eabddbd" A "cbedfcfebdffffafebaccebbcfccccbaaafdcdcdeeceddfb") ))
(assert (= (str.++  "fcfdacfeffdcaeccdaeacbc" A "dfdfdffccdcbcfdfbcadebdadcdeebee")  (str.++  "fcfdacfeffdcaeccdaeacbc" A "dfdfdffccdcbcfdfbcadebdadcdeebee") ))
(assert (= (str.++  "debcfedaedcbaaedbeaaafcfebdcfdedefacbcbabcbffbfbdace" A "edb")  (str.++  "debcfedaedcbaaedbeaaafcfebdcfdedefacbcbabcbffbfbdaceefcbedb" "") ))
(assert (= (str.++  "cc" A "cdaffecfababcbbcfafceecfaacedabddadfdeeabaaeadfbcbabc")  (str.++  "ccefcbcdaffecfababcbbcfafceecfaacedabddadfdeeabaaeadfbcbabc" "") ))
(assert (= (str.++  "adcefcbbaabcdbebcefcaaedefebaedecfeabacefaebfefbaaadafdcdcf" "")  (str.++  "adc" A "baabcdbebcefcaaedefebaedecfeabacefaebfefbaaadafdcdcf") ))
(assert (= (str.++  "aaebeafdfceadfdcefcdcfabddbbcdcabebfdaefbbcabbefdbfaffc" A)  (str.++  "aaebeafdfceadfdcefcdcfabddbbcdcabebfdaefbbcabbefdbfaffcefcb" "") ))
(assert (= (str.++  "ffbdfaffefcbeddfcbaaefbbffcbdaafbfeefbcffacfbefafffcfcbcfbd" "")  (str.++  "ffbdfaff" A "eddfcbaaefbbffcbdaafbfeefbcffacfbefafffcfcbcfbd") ))
(assert (= (str.++  "cfdaaefdbdfabcaabebcbdfcbddbfcaefcbbdbbedaebeeeaaecacdbbafd" "")  (str.++  "cfdaaefdbdfabcaabebcbdfcbddbfca" A "bdbbedaebeeeaaecacdbbafd") ))
(assert (= (str.++  "deafcbbebddcdbefcffbaebcdbbbbefcbaaffadedffceedcededaddcbba" "")  (str.++  "deafcbbebddcdbefcffbaebcdbbbb" A "aaffadedffceedcededaddcbba") ))
(assert (= (str.++  "ecdafefbfeead" A "cecaadffdbcdedaadbbfdbadcdaccbabcbfdeccbeb")  (str.++  "ecdafefbfeeadefcbcecaadffdbcdedaadbbfdbadcdaccbabcbfdeccbeb" "") ))
(assert (= (str.++  "facbcdefafbdccbcacdfdfffa" A "eeeacbfebcefcffffaadacffadefca")  (str.++  "facbcdefafbdccbcacdfdfffa" A "eeeacbfebcefcffffaadacffadefca") ))
(assert (= (str.++  "afbaebeecebcbbeaccbaeecacdfefbdefbcfabbacddfddbaefcbcaecded" "")  (str.++  "afbaebeecebcbbeaccbaeecacdfefbdefbcfabbacddfddba" A "caecded") ))
(assert (= (str.++  "dbecffcecfbbaabaeedcfcbabafbcffdfecffaaeffbdfefcbabadaafcff" "")  (str.++  "dbecffcecfbbaabaeedcfcbabafbcffdfecffaaeffbdf" A "abadaafcff") ))
(assert (= (str.++  "fbacdbfcfeefbdadbeaccdaeaadeeeeebfbaaeecfcaafacccdaefcbbebe" "")  (str.++  "fbacdbfcfeefbdadbeaccdaeaadeeeeebfbaaeecfcaafacccda" A "bebe") ))
(assert (= (str.++  "cabbddbbadacfdfbbfdfddcbafeaaf" A "acfdeecfeccdacddcdcffccaa")  (str.++  "cabbddbbadacfdfbbfdfddcbafeaafefcbacfdeecfeccdacddcdcffccaa" "") ))
(assert (= (str.++  "aabdecbcabbbcccfcbeedfabfefcdfdab" A "efbdeddafcdafdfedaebea")  (str.++  "aabdecbcabbbcccfcbeedfabfefcdfdab" A "efbdeddafcdafdfedaebea") ))
(assert (= (str.++  "edffeddfbdeeeeeccebafbdbfeaebffadefffeebf" A "beeeecfbfdffbc")  (str.++  "edffeddfbdeeeeeccebafbdbfeaebffadefffeebf" A "beeeecfbfdffbc") ))
(assert (= (str.++  "ebfbacdbbbfecaeffbefacffcfcbcffcffabefdaeeceaeb" A "caaedfbd")  (str.++  "ebfbacdbbbfecaeffbefacffcfcbcffcffabefdaeeceaeb" A "caaedfbd") ))
(assert (= (str.++  "fdefdafecbbdbfedcfde" A "fdebebbabcbabbdaaefafbeadadcedfcbdb")  (str.++  "fdefdafecbbdbfedcfde" A "fdebebbabcbabbdaaefafbeadadcedfcbdb") ))
(assert (= (str.++  "dfedcacbadedacffcfeefddffaccaddfdeabdaacccaabbbfcefaf" A "ce")  (str.++  "dfedcacbadedacffcfeefddffaccaddfdeabdaacccaabbbfcefaf" A "ce") ))
(assert (= (str.++  "f" A "ceafdfdabaeedbcebfacdfcfbadbedfcedbabeedbcaccdefedcadf")  (str.++  "f" A "ceafdfdabaeedbcebfacdfcfbadbedfcedbabeedbcaccdefedcadf") ))
(assert (= (str.++  "ecddebdfcefcea" A "dfddcbdaebffaccaeccdaafacbddbfbcfbeddaace")  (str.++  "ecddebdfcefceaefcbdfddcbdaebffaccaeccdaafacbddbfbcfbeddaace" "") ))
(assert (= (str.++  "bfeaaaaefcbbffedfabddafdfdeccfdfab" A "efefafeccfdcccbeeefab")  (str.++  "bfeaaaaefcbbffedfabddafdfdeccfdfab" A "efefafeccfdcccbeeefab") ))
(assert (= (str.++  "bdff" B "dafddebffedffecd" A "bfbeadfbcbfbfffadabdffcadf")  (str.++  "bdfffaafbdddafddebffedffecdeacfdfbfbeadfbcbfbfffadabdffcadf" "") ))
(assert (= (str.++  "dceafecfaefbbefcbabdfaddfdffaedcbeceeadce" A "edfbfccccadc")  (str.++  "dceafecfaefbbefcbabdfaddfdffaedcbeceeadce" A "edfbfccccadc") ))
(assert (= (str.++  "eeeeeeebdfebcebce" B "f" B B "edebb" B B "becaccccfabceafa" B "bbfd" B "b" B "bfbcccb")  (str.++  "eeeeeeebdfebcebcedf" B B "ede" A "ccb") ))
(assert (= (str.++  "ffeacfaddfecbfefeabaecfcfdeebf" B "bfcc" B "ec" B "dbcbaeceabfbaebacbbf")  (str.++  "ffeacfaddfecbfefeabaecfcf" B "eebfdbfccdec" B B "bcbaeceabfbaebacbbf") ))
(assert (= (str.++  "b" B "ebfeffceacbbfdcffbcdacbdfceeacbcc" B "abdddcffffeafcceacdbbec")  (str.++  "bdebfeffceacbbfdcffbc" B "acb" B "fceeacbcc" B "abd" B "dcffffeafcceacdbbec") ))
(assert (= (str.++  "caafdabfafffbabbfabb" B "fa" B "deebbffdcdcedeabfeef" B "eebbcbdfdcfcbf")  (str.++  "caaf" B "abfafffbabbfabbdfaddeebbffdcdcedeabfeefdeebbcbdf" B "cfcbf") ))
(assert (= (str.++  "abdcf" B "afdbbfafdbcc" B "cfbc" B B "fdcfafb" B "bbfedafcfefaffdacedaafcbed")  (str.++  "ab" B "cf" B "afdbbfafdbccdcfbc" B B "f" B "cfafbdbbfe" B "afcfefaff" B "ace" B "aafcbe" B) ))
(assert (= (str.++  "ccfa" B "abb" B "eccbaae" B "facfbedeaebb" B "befdebbcececfbcbbfd" B "fbcfcabab")  (str.++  "ccfa" B "abbdeccbaaedfacfbe" B "eaebbdbef" B "ebbcececfbcbbf" B "dfbcfcabab") ))
(assert (= (str.++  "bbabfeefdbfbba" B "bea" B "cbfaee" B "ffbcebbfbbeaabbff" B B "ccae" B "dfe" B "eebac")  (str.++  "bbabfeefdbfbba" B "beadcbfaeedffbcebbfbbeaabbff" B B "ccaed" B "fedeebac") ))
(assert (= (str.++  "bedafd" B B "cab" B "adcbeeecadfc" B B "bbbfdbcdbefdbeadcbbffafef" B "b" B "eebee")  (str.++  "bedaf" B "ddcabda" B "cbeeecadfc" B "dbbbf" B "bc" B "bef" B "beadcbbffafefdb" B "eebee") ))
(assert (= (str.++  B B "badfe" B "eafbbdebbbacecdbacb" B "eebabbdeeaf" B B "fdbafccfbceffaacdf")  (str.++  B B "ba" B "fe" B "eafbbdebbbacec" B "bacb" B "eebabb" B "eeaf" B B "fdbafccfbceffaacdf") ))
(assert (= (str.++  "afecacff" B "f" B "ca" B "ccadacbf" B "befcbacedae" B "bceebeccdfaabbfbdae" B "de" B "f")  (str.++  "afecacff" B "fdca" B "cca" B "acbfdbefcbace" B "aedbceebecc" B "faabbfbdae" B B "edf") ))
(assert (= (str.++  "defecafdfefbe" B "bc" B "bdbeaecb" B "dcfecbafcbf" B "ccfabfbefead" B "bce" B "caac")  (str.++  B "efecaf" B "fefbedbcdbdbeaecbd" B "cfecbafcbfdccfabfbefea" B "dbcedcaac") ))
(assert (= (str.++  B B "eddbbb" B "cadfbefdd" B "cafeeffceefabcfdcbde" B B "aafccbcfadadccacfe")  (str.++  B B "e" B "dbbb" B "ca" B "fbef" B B B "cafeeffceefabcf" B "cbdeddaafccbcfada" B "ccacfe") ))
(assert (= (str.++  "ac" B "efcccfcecccaaf" B "fdfbbedbaacbadfcbbd" B "bcb" B "ebea" B "c" B "aceb" B B B "aca")  (str.++  "acdefcccfcecccaaf" B "f" B "fbbedbaacbadfcbb" B B "bcbdebea" B "c" B "acebd" B "daca") ))
(assert (= (str.++  "afdb" B "ffcbffeffffbdce" B "ccee" B "bcdefacbdfbdaefcbbeefaccbebccbcbd")  (str.++  "af" B "b" B "ffcbffeffffbdce" B "ccee" B "bc" B "efacbdfbdaefcbbeefaccbebccbcb" B) ))
(assert (= (str.++  "fcbfcaaddfab" B "aacbcecb" B "becbcbbb" B B "dfbbcabbbecfdccfbaea" B "babbaa")  (str.++  "fcbfcaaddfab" B "aacbcecbdbecbcbbb" B "ddfbbcabbbecf" B "ccfbaea" B "babbaa") ))
(assert (= (str.++  "caedfaefaefeaffedfbc" B "be" B "ebecf" B "facccfceeaefbceb" B "eeee" B B "b" B "ffad")  (str.++  "cae" B "faefaefeaffedfbc" B "bedebecf" B "facccfceeaefbcebdeeee" B "dbdffad") ))
(assert (= (str.++  "aebadcfadbbccffcabbeaabaeefbcbaafcebecfccebbfadebacaabbbec" B)  (str.++  "aebadcfa" B "bbccffcabbeaabaeefbcbaafcebecfccebbfa" B "ebacaabbbec" B) ))
(assert (= (str.++  "eeacccecbfeffca" B "fbffacffefabcecbbdacabccf" B "ebcbfacebce" B B "cdfb")  (str.++  "eeacccecbfeffcadfbffacffefabcecbbdacabccfdebcbfacebceddc" B "fb") ))
(assert (= (str.++  B "cbfbbfdaeebeffbaaeeda" B "ecbbedbcbbb" B "c" B "cdffbcfea" B "beaaeababaff")  (str.++  B "cbfbbfdaeebeffbaaeedadecbbedbcbbbdc" B "cdffbcfeadbeaaeababaff") ))
(assert (= (str.++  "ceeed" B "adaafcfaabbedecfbfeafe" B "accedfadaafb" B B B "b" B "ffbfacecaeea" B)  (str.++  "ceeed" B "a" B "aafcfaabbedecfbfeafedaccedfadaafbd" B "dbdffbfacecaeead") ))
(assert (= (str.++  "facececaebfefbecfaeabfddacecefeacff" B "accf" B "fbaaadffcebfacffe" B)  (str.++  "facececaebfefbecfaeabfd" B "acecefeacffdaccfdfbaaa" B "ffcebfacffed") ))
(assert (= (str.++  "f" B "bbafbcffcccbafaaaaacaefbecbccb" B "efaecab" B "fef" B "acbcabafbec" B "ca")  (str.++  "fdbbafbcffcccbafaaaaacaefbecbccb" B "efaecabdfef" B "acbcabafbec" B "ca") ))
(assert (= (str.++  "becbcfefefaccf" B "c" B "fdfd" B "aabecdfceeabbebccf" B B "ecefafeaceebfcb" B "c")  (str.++  "becbcfefefaccfdc" B "fdfddaabecdfceeabbebccf" B "decefafeaceebfcb" B "c") ))
(assert (= (str.++  "eacaecabbedf" B "efab" B "acabffbbbcfc" B "e" B "cbbf" B "ecceebaebcaac" B "fabccfe")  (str.++  "eacaecabbe" B "fdefab" B "acabffbbbcfcdedcbbfdecceebaebcaacdfabccfe") ))
(assert (= (str.++  "bbfcfbcfccea" B "bfcedebbfedfeabbfe" B "dcbecda" B "e" B "eadbffcaaeefedbfb")  (str.++  "bbfcfbcfcceadbfce" B "ebbfedfeabbfe" B "dcbec" B "a" B "edeadbffcaaeefe" B "bfb") ))
(assert (= (str.++  "ed" B "ecebae" B "acbaebffa" B "afcfbeffeb" B B "aadeaaffecdfefbaf" B "ec" B "c" B "aecb")  (str.++  "eddecebae" B "acbaebffadafcfbeffebddaa" B "eaaffecdfefbafdec" B "cdaecb") ))
(assert (= (str.++  "afacecaaadacaf" B "ffecbea" B "abcaffdbfeffeeecaecdceffbfbdbabacdaa")  (str.++  "afacecaaa" B "acaf" B "ffecbea" B "abcaff" B "bfeffeeecaec" B "ceffbfbdbabac" B "aa") ))
(assert (= (str.++  "cabefbdcebcecfecccaeecfbfedbbfe" B "cbaa" B "bfb" B "c" B "cbfcefeeb" B "af" B "fec")  (str.++  "cabefbdcebcecfecccaeecfbfedbbfedcbaadbfbdc" B "cbfcefeeb" B "afdfec") ))
(assert (= (str.++  "acfececbad" B "fb" B "dff" B "f" B "beebfbaacbbabaccaab" B B "efdfccbac" B "ccfeedba")  (str.++  "acfececbad" B "fb" B B "ff" B "f" B "beebfbaacbbabaccaab" B B "ef" B "fccbacdccfeedba") ))
(assert (= (str.++  "fcefeaeecc" B "e" B "efcceaefcafcebbabeeefeaccb" B "ffffa" B "aba" B "ecdcacefa")  (str.++  "fcefeaeeccde" B "efcceaefcafcebbabeeefeaccbdffffadabadec" B "cacefa") ))
(assert (= (str.++  "dbbdcbdfbfbaebaadfbeccbebeeeaffaeabedefacfbafcfeead" B "faffece")  (str.++  B "bb" B "cb" B "fbfbaebaadfbeccbebeeeaffaeabe" B "efacfbafcfeea" B B "faffece") ))
(assert (= (str.++  "eabddeabfbefbbbcedbbc" B "faaffbefbfbfeaecbed" B "fbcfacebcaecbebdf")  (str.++  "eabd" B "eabfbefbbbcedbbc" B "faaffbefbfbfeaecbed" B "fbcfacebcaecbeb" B "f") ))
(assert (= (str.++  "cfdafdb" B "caecaaaedc" B "aebbfcfbcfefafceaecdeeab" B "d" B "fcbc" B "bcfeabcb")  (str.++  "cf" B "afdb" B "caecaaaedc" B "aebbfcfbcfefafceaec" B "eeabd" B B "fcbcdbcfeabcb") ))
(assert (= (str.++  "afbbabbafecbaefabbe" B "eeadeabfcafa" B "aaacefbebbbbcbdffa" B "afbaaca")  (str.++  "afbbabbafecbaefabbe" B "eeadeabfcafadaaacefbebbbbcbdffa" B "afbaaca") ))
(assert (= (str.++  B "feeabeafedbeaacefea" B B "ffab" B "abbaf" B "ded" B "caebcfcfefafacbfeeacdc")  (str.++  "dfeeabeafe" B "beaacefeaddffabdabbafd" B "e" B B "caebcfcfefafacbfeeacdc") ))
(assert (= (str.++  "ecefbaffebaeecaaaafbbae" B "dacfcccaedff" B "abaafdcbfb" B "aeaeeea" B "baf")  (str.++  "ecefbaffebaeecaaaafbbae" B B "acfcccae" B "ffdabaafdcbfbdaeaeeea" B "baf") ))
(assert (= (str.++  "ebd" B "e" B "aecac" B "bfcd" B B "feabbdaacbfefbefc" B "bc" B "cedfdaa" B B B "dca" B "adfebf")  (str.++  "ebddedaecac" B "bfcdddfeabb" B "aacbfefbefc" B "bc" B "cedfdaad" B B B "cadadfebf") ))
(assert (= (str.++  "adcbbbe" B "ddbbcedeabab" B "accceccafcbfbeedaeaedafcffccfcab" B B B "bdf")  (str.++  "adcbbbe" B B "dbbcedeababdaccceccafcbfbee" B "aeaedafcffccfcabdddb" B "f") ))
(assert (= (str.++  "dfcfff" B "f" B "cafbbebbc" B "ccb" B "dfcccabaeaaa" B "edbccfbdf" B "daedbfac" B "efee")  (str.++  "dfcfffdf" B "cafbbebbcdccb" B "dfcccabaeaaa" B "e" B "bccfbdf" B "dae" B "bfac" B "efee") ))
(assert (= (str.++  "dc" B "ceecab" B "ac" B "addceaeeffdbcb" B "aaebefbdf" B "ffba" B "eecfcefaebf" B B "cdc")  (str.++  "dc" B "ceecabdacda" B B "ceaeeff" B "bcb" B "aaebefb" B "fdffba" B "eecfcefaebfd" B "c" B "c") ))
(assert (= (str.++  "cadef" B "efeedaecc" B "ffecaafba" B "ace" B "daaeeeedaaaedeeabd" B "eafceee" B "ad")  (str.++  "ca" B "ef" B "efee" B "aeccdffecaafba" B "ace" B B "aaeeeedaaaedeeabddeafceeedad") ))
(assert (= (str.++  "d" B "cacfcfecaacb" B "bbbceecefafb" B "ffbcdadebfbbdcbcb" B "afe" B "bdfaf" B "ecc")  (str.++  "d" B "cacfcfecaacb" B "bbbceecefafbdffbcdadebfbbdcbcbdafe" B "b" B "faf" B "ecc") ))
(assert (= (str.++  "f" B "abdcfaebc" B "caecfbecfefca" B "caafcaeffecbbccebcbfcf" B "ae" B B "feadce")  (str.++  "f" B "ab" B "cfaebcdcaecfbecfefcadcaafcaeffecbbccebcbfcf" B "ae" B B "feadce") ))
(assert (= (str.++  "abeeffabd" B "abbdfcabfbbcffbeca" B "bcb" B "debeaee" B "aaaefaaeaaf" B "badecb")  (str.++  "abeeffab" B "dabbdfcabfbbcffbeca" B "bcbddebeaee" B "aaaefaaeaafdbadecb") ))
(assert (= (str.++  "fcfceecdbdecdcaba" B "e" B "dcacecccd" B "cffededaaffdafedeaffef" B "eafcbe")  (str.++  "fcfceecdb" B "ec" B "cabade" B B "caceccc" B "dcffededaaffdafedeaffef" B "eafcbe") ))
(assert (= (str.++  "affb" B "bccfefafabfbdadcfeacbadece" B "dccbfceeeeffdeccabebbacdbee")  (str.++  "affbdbccfefafabfb" B "a" B "cfeacbadece" B B "ccbfceeeeffdeccabebbacdbee") ))
(assert (= (str.++  B "dcebbdab" B "eaacf" B "fffbeebbfaca" B "dcfacfaccecfc" B "eace" B "aacfec" B "fafe")  (str.++  "d" B "cebb" B "abdeaacf" B "fffbeebbfacaddcfacfaccecfc" B "eacedaacfec" B "fafe") ))
(assert (= (str.++  "dcaeeb" B "cbfcbebfffafeddeadeeeafffaff" B "ceffbfeafbcebfcecb" B "aec" B)  (str.++  "dcaeeb" B "cbfcbebfffafeddeadeeeafffaff" B "ceffbfeafbcebfcecb" B "aec" B) ))
(assert (= (str.++  "bcefbeeffecafdbae" B "ababcbdfdccb" B B "bebefabafdecaaffdeaefceaacb")  (str.++  "bcefbeeffecaf" B "bae" B "ababcb" B "f" B "ccbddbebefabaf" B "ecaaffdeaefceaacb") ))
(assert (= (str.++  "facbcfaafcbbcbcbcdabcabbdabebbecbacdbfbedbbfec" B "cae" B "ffabfebf")  (str.++  "facbcfaafcbbcbcbcdabcabb" B "abebbecbacdbfbedbbfec" B "cae" B "ffabfebf") ))
(assert (= (str.++  "dfcffbaababacaeaafdffef" B "fedcdcb" B "f" B "b" B "eee" B "dfeccffbba" B "dbbffbba")  (str.++  B "fcffbaababacaeaafdffefdfedc" B "cbdf" B "b" B "eeeddfeccffbbad" B "bbffbba") ))
(assert (= (str.++  "efdefd" B "def" B "f" B B "debcdcbbccaeadac" B "dfcfbcacfcaffa" B "eaaefeffbc" B "fe")  (str.++  "ef" B "efd" B "def" B "fdd" B "ebc" B "cbbccaea" B "ac" B B "fcfbcacfcaffa" B "eaaefeffbcdfe") ))
(assert (= (str.++  "fcecaecbb" B "bbbe" B "afee" B "affdfedadbb" B "feffba" B B "ffceabaeccafeec" B B "bf")  (str.++  "fcecaecbbdbbbedafeedaff" B "fe" B "a" B "bbdfeffbaddffceabaeccafeecddbf") ))
(assert (= (str.++  "fce" B "bdfbfcfacfafa" B "cfbbbe" B "adf" B "aecefefa" B "fbbc" B "ea" B "fbe" B "ccbcaaeac")  (str.++  "fce" B "b" B "fbfcfacfafadcfbbbeda" B "f" B "aecefefadfbbc" B "ea" B "fbedccbcaaeac") ))
(assert (= (str.++  "bdbdaecfdcfbcdfcfc" B "efeeadbbfeffababbc" B "aecdcbbdaceedacfe" B "fcb")  (str.++  "b" B "bdaecf" B "cfbc" B "fcfc" B "efeea" B "bbfeffababbcdaecdcbb" B "aceedacfedfcb") ))
(assert (= (str.++  "cadacceadfefeccebbbfbabacfafce" B "beecacdbecdf" B "faeeefeeb" B "ababc")  (str.++  "ca" B "acceadfefeccebbbfbabacfafcedbeecac" B "becdf" B "faeeefeebdababc") ))
(assert (= (str.++  "ffaccbebebcffefebcccabab" B "ceccce" B B "dbfbbfbecfeaabcfbcebbadaaf")  (str.++  "ffaccbebebcffefebcccabab" B "ceccced" B B "bfbbfbecfeaabcfbcebba" B "aaf") ))
(assert (= (str.++  "ddc" B "affaadfbfcdafcbee" B "abdfecddbcbcc" B "cdfb" B "bfcfaecbb" B "caffeead")  (str.++  "d" B "cdaffaa" B "fbfc" B "afcbee" B "ab" B "fec" B B "bcbccdcdfb" B "bfcfaecbbdcaffeead") ))
(assert (= (str.++  "b" B "eddcbcecbbdcbecbdcbe" B "edaceabe" B "ce" B B "d" B "bfbcc" B "e" B "cceffacdaacea")  (str.++  "bde" B B "cbcecbb" B "cbecb" B "cbe" B "e" B "aceabedceddddbfbcc" B "edcceffacdaacea") ))
(assert (= (str.++  "bec" B "adffbafcfadbacbaabbcdabfbbbffdaeaaafef" B "ebefffc" B "beceebbf")  (str.++  "bec" B "adffbafcfadbacbaabbcdabfbbbffdaeaaafefdebefffcdbeceebbf") ))
(assert (= (str.++  "bcc" B "ead" B "dfefbafacadea" B "cadebaacfbdfeeabedfaaebdbcefbdecffedf")  (str.++  "bccdeadd" B "fefbafacadea" B "cadebaacfb" B "feeabe" B "faaeb" B "bcefb" B "ecffe" B "f") ))
(assert (= (str.++  "fbfaa" B "fbc" B "eecfbefeafcf" B "efecdecccfafcbedcee" B "ccafdecfaac" B "ef" B "c")  (str.++  "fbfaa" B "fbcdeecfbefeafcfdefecdecccfafcbedcee" B "ccaf" B "ecfaac" B "ef" B "c") ))
(assert (= (str.++  "cebeacaaafebfed" B "ffaceeabbcbbcfeafcaaeb" B "afa" B B "effcbcbebcab" B "ea")  (str.++  "cebeacaaafebfe" B "dffaceeabbcbbcfeafcaaeb" B "afad" B "effcbcbebcabdea") ))
(assert (= (str.++  "fcccf" B "aefedbaeafafabfccabdfcabadacebcc" B "c" B B "debacaccaaaacebde")  (str.++  "fcccf" B "aefe" B "baeafafabfccab" B "fcaba" B "acebcc" B "c" B "d" B "ebacaccaaaaceb" B "e") ))
(assert (= (str.++  "adedcbdcfbaccdcccfe" B "ebccebaffcdd" B "ecdbe" B "fcfaa" B "eabb" B "fbffbfafb")  (str.++  "adedcb" B "cfbacc" B "cccfedebccebaffcd" B B "ec" B "bedfcfaadeabb" B "fbffbfafb") ))
(assert (= (str.++  "beeabcccbfacfcefaca" B "cbacbfee" B "eefeafeaedbfecebbcccbcccbec" B "eb")  (str.++  "beeabcccbfacfcefacadcbacbfeedeefeafeae" B "bfecebbcccbcccbec" B "eb") ))
(assert (= (str.++  "bddafacdbbbfaeafaffcb" B "e" B "fcaea" B "cbfbeeafcabdaee" B "cbeaefdbceaec")  (str.++  "b" B "dafacdbbbfaeafaffcb" B "edfcaea" B "cbfbeeafcabdaee" B "cbeaefdbceaec") ))
(assert (= (str.++  "dabfcdcfaeaa" B "aadecbbfaffcfabbfdceedcfbec" B "db" B "accfeeacecbecfe")  (str.++  "dabfc" B "cfaeaadaadecbbfaffcfabbfdceedcfbec" B "dbdaccfeeacecbecfe") ))
(assert (= (str.++  "bb" B B "edaeacabcfeecbdeacbebaeacfbdebbafeecceeebca" B "bcaaafbfcda")  (str.++  "bb" B B "e" B "aeacabcfeecbdeacbebaeacfb" B "ebbafeecceeebca" B "bcaaafbfcda") ))
(assert (= (str.++  "cfedbdfecedcebebcebfbbeffafcffae" B "a" B "cfababacefafafbbf" B "edaaaf")  (str.++  "cfedbdfece" B "cebebcebfbbeffafcffae" B "adcfababacefafafbbfdedaaaf") ))
(assert (= (str.++  "dbbcaccfaabcefabbfbdaeaaeefcbaefcabcdfbbaeffeebfbbefabeb" B "db")  (str.++  B "bbcaccfaabcefabbfbdaeaaeefcbaefcabcdfbbaeffeebfbbefabeb" B "db") ))
(assert (= (str.++  "dffacaacaceac" B "eeadf" B "dcacbfcae" B "dbdeeaecfba" B "fbccebcdfdbbbafae")  (str.++  "dffacaacaceac" B "eeadfd" B "cacbfcaeddb" B "eeaecfbadfbccebc" B "f" B "bbbafae") ))
(assert (= (str.++  "baeebaecbafffabecbfbfafbaeefcaddfbacab" B "f" B "badcccadeb" B "eadbfbf")  (str.++  "baeebaecbafffabecbfbfafbaeefcaddfbacab" B "f" B "ba" B "ccca" B "ebdeadbfbf") ))
(assert (= (str.++  "acefcfadafabfedef" B "fcabacfbaccace" B "f" B "baecffdcc" B "d" B "bbbdcebceeeb")  (str.++  "acefcfadafabfe" B "ef" B "fcabacfbaccacedfdbaecffdccdddbbbdcebceeeb") ))
(assert (= (str.++  "beaeee" B B "bd" B "ebaebfaba" B "bffcefecca" B "aebeaadffcbbeeacaedde" B "ede" B "c")  (str.++  "beaeeeddbd" B "ebaebfabadbffcefecca" B "aebeaa" B "ffcbbeeacaedde" B "e" B "edc") ))
(assert (= (str.++  "cabc" B "cdfbf" B "ebacabddccebffaccecacdacecfbbbcca" B "ffbeabbcdddbbf")  (str.++  "cabcdc" B "fbf" B "ebacabd" B "ccebffaccecacdacecfbbbccadffbeabbcd" B B "bbf") ))
(assert (= (str.++  "aabeaedeeeebbbabccfaabfdacfaccffaacfbaaebbe" B "affbdccbaea" B B "ef")  (str.++  "aabeaedeeeebbbabccfaabf" B "acfaccffaacfbaaebbedaffbdccbaead" B "ef") ))
(assert (= (str.++  "cffebcedcaccabdbb" B "deecbbaafecbfbfcbebccedebfffac" B "efbacaacab")  (str.++  "cffebce" B "caccab" B "bb" B "deecbbaafecbfbfcbebcce" B "ebfffac" B "efbacaacab") ))
(assert (= (str.++  "dbacdbbebccbaadafeacbcecaecefd" B "dffdcebfbddabdcfbfadffacfeff")  (str.++  "dbacdbbebccbaa" B "afeacbcecaecefd" B B "ff" B "cebfbddab" B "cfbfa" B "ffacfeff") ))
(assert (= (str.++  "beadfae" B "ce" B "edabecfbeebbafaefa" B "fcfc" B "eebac" B "adcebfdcfbbafaafac")  (str.++  "beadfaedce" B "e" B "abecfbeebbafaefa" B "fcfc" B "eebacda" B "cebfdcfbbafaafac") ))
(assert (= (str.++  "dbcfccafaacdbf" B "c" B "ffeebcbafbb" B "bcb" B "aacf" B "fcabfeedbdbabbaffbcc" B)  (str.++  B "bcfccafaacdbfdcdffeebcbafbbdbcb" B "aacfdfcabfeedbdbabbaffbccd") ))
(check-sat)
(get-model)
